(set-logic HORN)
(set-info :source |
    Benchmark: C_VC
    Output by Princess (http://www.philipp.ruemmer.org/princess.shtml)
|)
(set-info :status sat)
(declare-heap Heap Addr HeapObject
 defObj
 ((HeapObject 0) (node 0)) (
  (
   (O_Int (getInt Int))
   (O_UInt (getUInt Int))
   (O_Addr (getAddr Addr))
   (O_node (getnode node))
   (defObj)
  )
  (
   (node (next Addr))
  )
))
(declare-fun inv_main15 (Heap Int Int Addr) Bool)
(declare-fun inv_main19 (Heap Int Int Addr Addr) Bool)
(declare-fun inv_main2 (Heap) Bool)
(declare-fun inv_main22 (Heap Int Int Addr Addr Int) Bool)
(declare-fun inv_main30 (Heap Int Addr Int Int Int) Bool)
(declare-fun inv_main36 (Heap Int Addr Int Int) Bool)
(declare-fun inv_main42 (Heap Int Addr Int Int Int Int Int) Bool)
(declare-fun inv_main47 (Heap Int Addr Int Int Int) Bool)
(declare-fun inv_main56 (Heap Int Addr Int Int Int Int Int Addr Int) Bool)
(declare-fun inv_main6 (Heap Int Int Int) Bool)
(declare-fun inv_main61 (Heap Int Addr Int Int Int Int Int Addr Addr Addr) Bool)
(declare-fun inv_main63 (Heap Int Addr Int Int Int Int Int Addr Addr Addr) Bool)
(declare-fun inv_main66 (Heap Int Addr Int Int Int Int Int Addr Addr Addr) Bool)
(declare-fun inv_main77 (Heap Int Addr Int Int Addr Int) Bool)
(declare-fun inv_main83 (Heap Int Addr Int Int Addr) Bool)
(declare-fun inv_main86 (Heap Int Addr Int Int) Bool)
(assert (inv_main2 emptyHeap))
(assert (forall ((var0 Addr) (var1 Int) (var2 Int) (var3 node) (var4 Heap) (var5 Addr) (var6 Addr) (var7 Int) (var8 Int) (var9 Heap)) (or (not (and (inv_main15 var9 var8 var7 var6) (and (and (not (= nullAddr var5)) (and (and (and (and (= var4 (newHeap (alloc var9 (O_node var3)))) (= var2 var8)) (= var1 (+ var7 (- 1)))) (= var0 var6)) (= var5 (newAddr (alloc var9 (O_node var3)))))) (<= 0 (+ var7 (- 1)))))) (inv_main19 var4 var2 var1 var0 var5))))
(assert (forall ((var0 Int) (var1 Addr) (var2 Int) (var3 Int) (var4 Addr) (var5 Int) (var6 Heap) (var7 Addr) (var8 Int) (var9 Addr) (var10 Int) (var11 Int) (var12 Addr) (var13 Int) (var14 Heap)) (or (not (and (inv_main77 var14 var13 var12 var11 var10 var9 var8) (and (not (= var7 nullAddr)) (and (is-O_node (read var14 var9)) (and (and (and (and (and (and (and (= var6 var14) (= var5 var13)) (= var4 var12)) (= var3 var11)) (= var2 var10)) (= var1 var9)) (= var0 var8)) (= var7 (next (getnode (read var14 var9))))))))) (inv_main77 var6 var5 var4 var3 var2 var7 (+ var0 1)))))
(assert (forall ((var0 Int) (var1 Int) (var2 Addr) (var3 Int) (var4 Heap)) (or (not (and (inv_main36 var4 var3 var2 var1 var0) (and (not (= var2 nullAddr)) (not (<= 0 (+ (+ var1 (* (- 1) var0)) (- 1))))))) (inv_main77 var4 var3 var2 var1 var0 var2 1))))
(assert (forall ((var0 Addr) (var1 Addr) (var2 Int) (var3 Int) (var4 Int) (var5 Int) (var6 Int) (var7 Addr) (var8 Int) (var9 Heap) (var10 Addr) (var11 Addr) (var12 Addr) (var13 Addr) (var14 Int) (var15 Int) (var16 Int) (var17 Int) (var18 Int) (var19 Addr) (var20 Int) (var21 Heap)) (or (not (and (inv_main61 var21 var20 var19 var18 var17 var16 var15 var14 var13 var12 var11) (and (and (not (= var10 nullAddr)) (is-O_node (read var21 var13))) (and (and (and (and (and (and (and (and (and (and (= var9 (write var21 var13 (O_node (node var11)))) (= var8 var20)) (= var7 var19)) (= var6 var18)) (= var5 var17)) (= var4 var16)) (= var3 var15)) (= var2 var14)) (= var1 var13)) (= var10 var12)) (= var0 var11))))) (inv_main66 var9 var8 var7 var6 var5 var4 var3 var2 var1 var10 var0))))
(assert (forall ((var0 Addr) (var1 Addr) (var2 Int) (var3 Int) (var4 Heap) (var5 Addr) (var6 Addr) (var7 Int) (var8 Int) (var9 Heap)) (or (not (and (inv_main19 var9 var8 var7 var6 var5) (and (is-O_node (read var9 var5)) (and (and (and (and (= var4 (write var9 var5 (O_node (node var6)))) (= var3 var8)) (= var2 var7)) (= var1 var6)) (= var0 var5))))) (inv_main15 var4 var3 var2 var0))))
(assert (forall ((var0 Int) (var1 Int) (var2 Int) (var3 Heap)) (or (not (and (inv_main6 var3 var2 var1 var0) (not (<= 0 (+ (+ var1 (* (- 1) var0)) (- 1)))))) (inv_main15 var3 var0 var0 nullAddr))))
(assert (forall ((var0 Int) (var1 Int) (var2 Int) (var3 Int) (var4 Heap)) (or (not (and (inv_main6 var4 var3 var2 var1) (and (= var0 0) (<= 0 (+ (+ var2 (* (- 1) var1)) (- 1)))))) (inv_main15 var4 var1 var1 nullAddr))))
(assert (forall ((var0 Int) (var1 Addr) (var2 Addr) (var3 Int) (var4 Int) (var5 Heap)) (or (not (inv_main22 var5 var4 var3 var2 var1 var0)) (inv_main22 var5 var4 var3 var2 var1 var0))))
(assert (forall ((var0 Addr) (var1 Int) (var2 Int) (var3 node) (var4 Heap) (var5 Addr) (var6 Addr) (var7 Int) (var8 Int) (var9 Heap)) (or (not (and (inv_main15 var9 var8 var7 var6) (and (and (= nullAddr var5) (and (and (and (and (= var4 (newHeap (alloc var9 (O_node var3)))) (= var2 var8)) (= var1 (+ var7 (- 1)))) (= var0 var6)) (= var5 (newAddr (alloc var9 (O_node var3)))))) (<= 0 (+ var7 (- 1)))))) (inv_main22 var4 var2 var1 var0 var5 1))))
(assert (forall ((var0 Int) (var1 Int) (var2 Int) (var3 Int) (var4 Int) (var5 Addr) (var6 Int) (var7 Heap) (var8 Addr) (var9 Addr) (var10 Addr) (var11 Int) (var12 Int) (var13 Int) (var14 Int) (var15 Int) (var16 Addr) (var17 Int) (var18 Heap)) (or (not (and (inv_main66 var18 var17 var16 var15 var14 var13 var12 var11 var10 var9 var8) (and (is-O_node (read var18 var9)) (and (and (and (and (and (and (and (= var7 (write var18 var9 (O_node (node var10)))) (= var6 var17)) (= var5 var16)) (= var4 var15)) (= var3 var14)) (= var2 var13)) (= var1 var12)) (= var0 var11))))) (inv_main36 var7 var6 var5 var4 (+ var3 1)))))
(assert (forall ((var0 Addr) (var1 Addr) (var2 Int) (var3 Int) (var4 Int) (var5 Int) (var6 Int) (var7 Addr) (var8 Int) (var9 Heap) (var10 Addr) (var11 Addr) (var12 Addr) (var13 Addr) (var14 Int) (var15 Int) (var16 Int) (var17 Int) (var18 Int) (var19 Addr) (var20 Int) (var21 Heap)) (or (not (and (inv_main61 var21 var20 var19 var18 var17 var16 var15 var14 var13 var12 var11) (and (and (= var10 nullAddr) (is-O_node (read var21 var13))) (and (and (and (and (and (and (and (and (and (and (= var9 (write var21 var13 (O_node (node var11)))) (= var8 var20)) (= var7 var19)) (= var6 var18)) (= var5 var17)) (= var4 var16)) (= var3 var15)) (= var2 var14)) (= var1 var13)) (= var10 var12)) (= var0 var11))))) (inv_main36 var9 var8 var1 var6 (+ var5 1)))))
(assert (forall ((var0 Int) (var1 Int) (var2 Int) (var3 Addr) (var4 Int) (var5 Heap)) (or (not (and (inv_main30 var5 var4 var3 var2 var1 var0) (not (<= 0 (+ (+ var1 (* (- 1) var0)) (- 1)))))) (inv_main36 var5 var4 var3 var0 0))))
(assert (forall ((var0 Int) (var1 Int) (var2 Int) (var3 Int) (var4 Addr) (var5 Int) (var6 Heap)) (or (not (and (inv_main30 var6 var5 var4 var3 var2 var1) (and (= var0 0) (<= 0 (+ (+ var2 (* (- 1) var1)) (- 1)))))) (inv_main36 var6 var5 var4 var1 0))))
(assert (forall ((var0 Int) (var1 Int) (var2 Int) (var3 Int) (var4 Int) (var5 Addr) (var6 Int) (var7 Heap)) (or (not (and (inv_main42 var7 var6 var5 var4 var3 var2 var1 var0) (not (<= 0 (+ (+ var1 (* (- 1) var0)) (- 1)))))) (inv_main47 var7 var6 var5 var4 var3 var0))))
(assert (forall ((var0 Int) (var1 Int) (var2 Int) (var3 Int) (var4 Int) (var5 Int) (var6 Addr) (var7 Int) (var8 Heap)) (or (not (and (inv_main42 var8 var7 var6 var5 var4 var3 var2 var1) (and (= var0 0) (<= 0 (+ (+ var2 (* (- 1) var1)) (- 1)))))) (inv_main47 var8 var7 var6 var5 var4 var1))))
(assert (forall ((var0 Addr) (var1 Int) (var2 Addr) (var3 Heap) (var4 Addr) (var5 Int) (var6 Int) (var7 Int) (var8 Int) (var9 Addr) (var10 Int) (var11 Int) (var12 Addr) (var13 Int) (var14 Heap)) (or (not (and (inv_main77 var14 var13 var12 var11 var10 var9 var8) (and (not (= (+ var7 var6) var5)) (and (= var4 nullAddr) (and (is-O_node (read var14 var9)) (and (and (and (and (and (and (and (= var3 var14) (= var6 var13)) (= var2 var12)) (= var7 var11)) (= var1 var10)) (= var0 var9)) (= var5 var8)) (= var4 (next (getnode (read var14 var9)))))))))) (inv_main86 var3 var6 var2 var7 var1))))
(assert (forall ((var0 Int) (var1 Int) (var2 Addr) (var3 Int) (var4 Heap)) (or (not (and (inv_main36 var4 var3 var2 var1 var0) (and (and (not (= (+ var1 var3) 0)) (= var2 nullAddr)) (not (<= 0 (+ (+ var1 (* (- 1) var0)) (- 1))))))) (inv_main86 var4 var3 var2 var1 var0))))
(assert (forall ((var0 Addr) (var1 Addr) (var2 Addr) (var3 Addr) (var4 Int) (var5 Int) (var6 Int) (var7 Int) (var8 Addr) (var9 Int) (var10 Heap) (var11 Int) (var12 Addr) (var13 Addr) (var14 Addr) (var15 Int) (var16 Int) (var17 Int) (var18 Int) (var19 Int) (var20 Addr) (var21 Int) (var22 Heap)) (or (not (and (inv_main63 var22 var21 var20 var19 var18 var17 var16 var15 var14 var13 var12) (and (<= 0 (+ var11 (- 1))) (and (is-O_node (read var22 var12)) (and (and (and (and (and (and (and (and (and (and (and (= var10 var22) (= var9 var21)) (= var8 var20)) (= var7 var19)) (= var6 var18)) (= var5 var17)) (= var4 var16)) (= var11 var15)) (= var3 var14)) (= var2 var13)) (= var1 var12)) (= var0 (next (getnode (read var22 var12))))))))) (inv_main63 var10 var9 var8 var7 var6 var5 var4 (+ var11 (- 1)) var3 var0 var0))))
(assert (forall ((var0 node) (var1 Addr) (var2 Addr) (var3 Addr) (var4 Int) (var5 Int) (var6 Int) (var7 Int) (var8 Int) (var9 Int) (var10 Int) (var11 Int) (var12 Int) (var13 Addr) (var14 Addr) (var15 Int) (var16 Int) (var17 Heap) (var18 Heap) (var19 Int) (var20 Int) (var21 Int) (var22 Int) (var23 Addr) (var24 Int) (var25 Heap)) (or (not (and (inv_main47 var25 var24 var23 var22 var21 var20) (and (and (<= 0 (+ var19 (- 1))) (and (and (and (and (and (and (and (and (and (= var18 var17) (= var16 var15)) (= var14 var13)) (= var12 var11)) (= var10 var9)) (= var8 var7)) (= var6 var5)) (= var19 var4)) (= var3 var2)) (= var1 nullAddr))) (and (not (= nullAddr var2)) (and (and (and (and (and (and (and (and (= var17 (newHeap (alloc var25 (O_node var0)))) (= var15 var24)) (= var13 var23)) (= var11 var22)) (= var9 var21)) (= var7 var20)) (= var5 2)) (= var4 var20)) (= var2 (newAddr (alloc var25 (O_node var0))))))))) (inv_main63 var18 var16 var14 var12 var10 var8 var6 (+ var19 (- 1)) var3 var14 var14))))
(assert (forall ((var0 Addr) (var1 Int) (var2 Int) (var3 Addr) (var4 Int) (var5 Heap) (var6 Addr) (var7 Addr) (var8 Int) (var9 Int) (var10 Addr) (var11 Int) (var12 Heap) (var13 Addr) (var14 Addr) (var15 Int) (var16 Int) (var17 Addr) (var18 Int) (var19 Heap)) (or (not (and (inv_main83 var19 var18 var17 var16 var15 var14) (and (not (= var13 nullAddr)) (and (and (is-O_node (read var19 var14)) (and (and (and (and (and (and (= var12 var19) (= var11 var18)) (= var10 var17)) (= var9 var16)) (= var8 var15)) (= var7 var14)) (= var6 (next (getnode (read var19 var14)))))) (and (and (and (and (and (and (= var5 (write var12 var7 defObj)) (= var4 var11)) (= var3 var10)) (= var2 var9)) (= var1 var8)) (= var0 var7)) (= var13 var6)))))) (inv_main83 var5 var4 var3 var2 var1 var13))))
(assert (forall ((var0 Addr) (var1 Int) (var2 Heap) (var3 Addr) (var4 Int) (var5 Int) (var6 Int) (var7 Addr) (var8 Int) (var9 Addr) (var10 Int) (var11 Int) (var12 Addr) (var13 Int) (var14 Heap)) (or (not (and (inv_main77 var14 var13 var12 var11 var10 var9 var8) (and (not (= var7 nullAddr)) (and (= (+ var6 var5) var4) (and (= var3 nullAddr) (and (is-O_node (read var14 var9)) (and (and (and (and (and (and (and (= var2 var14) (= var5 var13)) (= var7 var12)) (= var6 var11)) (= var1 var10)) (= var0 var9)) (= var4 var8)) (= var3 (next (getnode (read var14 var9))))))))))) (inv_main83 var2 var5 var7 var6 var1 var7))))
(assert (forall ((var0 Int) (var1 Int) (var2 Addr) (var3 Int) (var4 Heap)) (or (not (and (inv_main36 var4 var3 var2 var1 var0) (and (not (= var2 nullAddr)) (and (and (= (+ var1 var3) 0) (= var2 nullAddr)) (not (<= 0 (+ (+ var1 (* (- 1) var0)) (- 1)))))))) (inv_main83 var4 var3 var2 var1 var0 var2))))
(assert (forall ((var0 Int) (var1 Addr) (var2 Int) (var3 Int) (var4 Int) (var5 Int) (var6 Int) (var7 Addr) (var8 Int) (var9 Heap)) (or (not (inv_main56 var9 var8 var7 var6 var5 var4 var3 var2 var1 var0)) (inv_main56 var9 var8 var7 var6 var5 var4 var3 var2 var1 var0))))
(assert (forall ((var0 Int) (var1 Int) (var2 Int) (var3 Int) (var4 Int) (var5 Addr) (var6 Int) (var7 node) (var8 Heap) (var9 Addr) (var10 Int) (var11 Int) (var12 Int) (var13 Addr) (var14 Int) (var15 Heap)) (or (not (and (inv_main47 var15 var14 var13 var12 var11 var10) (and (= nullAddr var9) (and (and (and (and (and (and (and (and (= var8 (newHeap (alloc var15 (O_node var7)))) (= var6 var14)) (= var5 var13)) (= var4 var12)) (= var3 var11)) (= var2 var10)) (= var1 2)) (= var0 var10)) (= var9 (newAddr (alloc var15 (O_node var7)))))))) (inv_main56 var8 var6 var5 var4 var3 var2 var1 var0 var9 1))))
(assert (forall ((var0 Int) (var1 Int) (var2 Int) (var3 Int) (var4 Int) (var5 Int) (var6 Addr) (var7 Int) (var8 Heap)) (or (not (and (inv_main42 var8 var7 var6 var5 var4 var3 var2 var1) (and (not (= var0 0)) (<= 0 (+ (+ var2 (* (- 1) var1)) (- 1)))))) (inv_main42 var8 var7 var6 var5 var4 var3 var2 (+ var1 1)))))
(assert (forall ((var0 Int) (var1 Int) (var2 Addr) (var3 Int) (var4 Heap)) (or (not (and (inv_main36 var4 var3 var2 var1 var0) (<= 0 (+ (+ var1 (* (- 1) var0)) (- 1))))) (inv_main42 var4 var3 var2 var1 var0 0 (+ var0 (+ var3 (- 1))) 0))))
(assert (forall ((var0 Addr) (var1 Addr) (var2 Addr) (var3 Addr) (var4 Int) (var5 Int) (var6 Int) (var7 Int) (var8 Addr) (var9 Int) (var10 Heap) (var11 Int) (var12 Addr) (var13 Addr) (var14 Addr) (var15 Int) (var16 Int) (var17 Int) (var18 Int) (var19 Int) (var20 Addr) (var21 Int) (var22 Heap)) (or (not (and (inv_main63 var22 var21 var20 var19 var18 var17 var16 var15 var14 var13 var12) (and (not (<= 0 (+ var11 (- 1)))) (and (is-O_node (read var22 var12)) (and (and (and (and (and (and (and (and (and (and (and (= var10 var22) (= var9 var21)) (= var8 var20)) (= var7 var19)) (= var6 var18)) (= var5 var17)) (= var4 var16)) (= var11 var15)) (= var3 var14)) (= var2 var13)) (= var1 var12)) (= var0 (next (getnode (read var22 var12))))))))) (inv_main61 var10 var9 var8 var7 var6 var5 var4 (+ var11 (- 1)) var3 var2 var0))))
(assert (forall ((var0 node) (var1 Addr) (var2 Addr) (var3 Addr) (var4 Int) (var5 Int) (var6 Int) (var7 Int) (var8 Int) (var9 Int) (var10 Int) (var11 Int) (var12 Int) (var13 Addr) (var14 Addr) (var15 Int) (var16 Int) (var17 Heap) (var18 Heap) (var19 Int) (var20 Int) (var21 Int) (var22 Int) (var23 Addr) (var24 Int) (var25 Heap)) (or (not (and (inv_main47 var25 var24 var23 var22 var21 var20) (and (and (not (<= 0 (+ var19 (- 1)))) (and (and (and (and (and (and (and (and (and (= var18 var17) (= var16 var15)) (= var14 var13)) (= var12 var11)) (= var10 var9)) (= var8 var7)) (= var6 var5)) (= var19 var4)) (= var3 var2)) (= var1 nullAddr))) (and (not (= nullAddr var2)) (and (and (and (and (and (and (and (and (= var17 (newHeap (alloc var25 (O_node var0)))) (= var15 var24)) (= var13 var23)) (= var11 var22)) (= var9 var21)) (= var7 var20)) (= var5 2)) (= var4 var20)) (= var2 (newAddr (alloc var25 (O_node var0))))))))) (inv_main61 var18 var16 var14 var12 var10 var8 var6 (+ var19 (- 1)) var3 var1 var14))))
(assert (forall ((var0 Int) (var1 Int) (var2 Int) (var3 Int) (var4 Heap)) (or (not (and (inv_main6 var4 var3 var2 var1) (and (not (= var0 0)) (<= 0 (+ (+ var2 (* (- 1) var1)) (- 1)))))) (inv_main6 var4 var3 var2 (+ var1 1)))))
(assert (forall ((var0 Heap)) (or (not (inv_main2 var0)) (inv_main6 var0 2 5 2))))
(assert (forall ((var0 Int) (var1 Int) (var2 Int) (var3 Int) (var4 Addr) (var5 Int) (var6 Heap)) (or (not (and (inv_main30 var6 var5 var4 var3 var2 var1) (and (not (= var0 0)) (<= 0 (+ (+ var2 (* (- 1) var1)) (- 1)))))) (inv_main30 var6 var5 var4 var3 var2 (+ var1 1)))))
(assert (forall ((var0 Addr) (var1 Int) (var2 Int) (var3 Heap)) (or (not (and (inv_main15 var3 var2 var1 var0) (not (<= 0 (+ var1 (- 1)))))) (inv_main30 var3 var2 var0 0 (+ var2 (- 1)) 0))))
(assert (forall ((var0 Addr) (var1 Addr) (var2 Int) (var3 Int) (var4 Heap)) (not (and (inv_main19 var4 var3 var2 var1 var0) (not (is-O_node (read var4 var0)))))))
(assert (forall ((var0 Addr) (var1 Addr) (var2 Addr) (var3 Int) (var4 Int) (var5 Int) (var6 Int) (var7 Int) (var8 Addr) (var9 Int) (var10 Heap)) (not (and (inv_main63 var10 var9 var8 var7 var6 var5 var4 var3 var2 var1 var0) (not (is-O_node (read var10 var0)))))))
(assert (forall ((var0 Addr) (var1 Addr) (var2 Addr) (var3 Int) (var4 Int) (var5 Int) (var6 Int) (var7 Int) (var8 Addr) (var9 Int) (var10 Heap)) (not (and (inv_main61 var10 var9 var8 var7 var6 var5 var4 var3 var2 var1 var0) (not (is-O_node (read var10 var2)))))))
(assert (forall ((var0 Addr) (var1 Addr) (var2 Addr) (var3 Int) (var4 Int) (var5 Int) (var6 Int) (var7 Int) (var8 Addr) (var9 Int) (var10 Heap)) (not (and (inv_main66 var10 var9 var8 var7 var6 var5 var4 var3 var2 var1 var0) (not (is-O_node (read var10 var1)))))))
(assert (forall ((var0 Int) (var1 Addr) (var2 Int) (var3 Int) (var4 Addr) (var5 Int) (var6 Heap)) (not (and (inv_main77 var6 var5 var4 var3 var2 var1 var0) (not (is-O_node (read var6 var1)))))))
(assert (forall ((var0 Addr) (var1 Int) (var2 Int) (var3 Addr) (var4 Int) (var5 Heap)) (not (and (inv_main83 var5 var4 var3 var2 var1 var0) (not (is-O_node (read var5 var0)))))))
(assert (forall ((var0 Int) (var1 Int) (var2 Addr) (var3 Int) (var4 Heap)) (not (inv_main86 var4 var3 var2 var1 var0))))
(check-sat)
